c FILE: i160-345

c SOURCE: From steinlib

c DESCRIPTION: Steinlib instance with 160 nodes and 2544 edges.

p edge 160 2544
e 1 5
e 1 7
e 1 15
e 1 18
e 1 19
e 1 21
e 1 25
e 1 27
e 1 30
e 1 40
e 1 41
e 1 44
e 1 50
e 1 53
e 1 58
e 1 59
e 1 61
e 1 64
e 1 71
e 1 77
e 1 80
e 1 81
e 1 84
e 1 87
e 1 88
e 1 90
e 1 92
e 1 99
e 1 100
e 1 112
e 1 115
e 1 120
e 1 124
e 1 126
e 1 131
e 1 133
e 1 135
e 1 137
e 1 139
e 1 140
e 1 141
e 1 153
e 1 154
e 2 3
e 2 13
e 2 20
e 2 21
e 2 22
e 2 28
e 2 34
e 2 36
e 2 40
e 2 45
e 2 51
e 2 57
e 2 59
e 2 64
e 2 68
e 2 82
e 2 85
e 2 86
e 2 88
e 2 113
e 2 115
e 2 120
e 2 126
e 2 127
e 2 130
e 2 134
e 2 136
e 2 137
e 2 139
e 2 140
e 2 147
e 2 149
e 2 151
e 2 152
e 2 153
e 2 157
e 2 158
e 3 11
e 3 20
e 3 23
e 3 25
e 3 26
e 3 29
e 3 30
e 3 41
e 3 56
e 3 61
e 3 66
e 3 69
e 3 72
e 3 82
e 3 90
e 3 94
e 3 95
e 3 105
e 3 111
e 3 118
e 3 122
e 3 124
e 3 130
e 3 134
e 3 140
e 3 143
e 3 150
e 4 13
e 4 15
e 4 18
e 4 36
e 4 37
e 4 38
e 4 39
e 4 43
e 4 48
e 4 52
e 4 56
e 4 62
e 4 63
e 4 66
e 4 69
e 4 76
e 4 86
e 4 91
e 4 93
e 4 95
e 4 98
e 4 104
e 4 105
e 4 109
e 4 113
e 4 118
e 4 122
e 4 123
e 4 125
e 4 130
e 4 132
e 4 134
e 4 141
e 4 143
e 4 146
e 4 149
e 5 14
e 5 19
e 5 20
e 5 29
e 5 35
e 5 40
e 5 42
e 5 47
e 5 50
e 5 51
e 5 57
e 5 59
e 5 60
e 5 66
e 5 69
e 5 71
e 5 75
e 5 78
e 5 79
e 5 80
e 5 82
e 5 93
e 5 98
e 5 109
e 5 111
e 5 115
e 5 123
e 5 133
e 5 137
e 5 139
e 5 140
e 5 143
e 5 146
e 5 151
e 5 154
e 5 155
e 5 157
e 6 7
e 6 10
e 6 23
e 6 26
e 6 27
e 6 36
e 6 42
e 6 44
e 6 46
e 6 51
e 6 52
e 6 58
e 6 61
e 6 67
e 6 76
e 6 80
e 6 82
e 6 96
e 6 98
e 6 108
e 6 119
e 6 124
e 6 127
e 6 149
e 7 8
e 7 10
e 7 11
e 7 12
e 7 13
e 7 17
e 7 18
e 7 25
e 7 27
e 7 33
e 7 36
e 7 49
e 7 50
e 7 51
e 7 53
e 7 57
e 7 60
e 7 61
e 7 63
e 7 64
e 7 71
e 7 76
e 7 77
e 7 81
e 7 102
e 7 106
e 7 112
e 7 115
e 7 117
e 7 121
e 7 122
e 7 130
e 7 135
e 7 153
e 8 11
e 8 13
e 8 18
e 8 21
e 8 29
e 8 31
e 8 40
e 8 45
e 8 48
e 8 52
e 8 58
e 8 64
e 8 68
e 8 89
e 8 90
e 8 92
e 8 93
e 8 99
e 8 108
e 8 109
e 8 112
e 8 113
e 8 115
e 8 122
e 8 123
e 8 124
e 8 127
e 8 129
e 8 136
e 8 142
e 8 147
e 9 12
e 9 16
e 9 19
e 9 20
e 9 34
e 9 41
e 9 43
e 9 45
e 9 49
e 9 50
e 9 59
e 9 66
e 9 72
e 9 77
e 9 78
e 9 83
e 9 86
e 9 88
e 9 90
e 9 103
e 9 105
e 9 109
e 9 113
e 9 116
e 9 118
e 9 124
e 9 126
e 9 127
e 9 130
e 9 132
e 9 138
e 9 143
e 9 148
e 9 158
e 10 11
e 10 12
e 10 14
e 10 23
e 10 25
e 10 31
e 10 42
e 10 43
e 10 47
e 10 55
e 10 56
e 10 60
e 10 63
e 10 77
e 10 78
e 10 80
e 10 90
e 10 95
e 10 128
e 10 135
e 10 137
e 10 145
e 10 153
e 10 156
e 10 157
e 10 160
e 11 12
e 11 15
e 11 16
e 11 24
e 11 30
e 11 34
e 11 38
e 11 46
e 11 47
e 11 48
e 11 57
e 11 72
e 11 76
e 11 88
e 11 96
e 11 98
e 11 105
e 11 120
e 11 122
e 11 123
e 11 129
e 11 132
e 11 134
e 11 141
e 11 144
e 11 146
e 11 147
e 11 150
e 11 152
e 11 156
e 12 18
e 12 27
e 12 33
e 12 40
e 12 44
e 12 58
e 12 67
e 12 71
e 12 72
e 12 77
e 12 85
e 12 86
e 12 90
e 12 92
e 12 95
e 12 98
e 12 111
e 12 116
e 12 118
e 12 120
e 12 124
e 12 126
e 12 130
e 12 132
e 12 133
e 12 136
e 12 145
e 12 151
e 12 155
e 12 156
e 12 157
e 13 15
e 13 20
e 13 29
e 13 34
e 13 37
e 13 43
e 13 45
e 13 49
e 13 52
e 13 56
e 13 68
e 13 69
e 13 73
e 13 75
e 13 80
e 13 84
e 13 96
e 13 100
e 13 103
e 13 106
e 13 109
e 13 110
e 13 113
e 13 121
e 13 123
e 13 127
e 13 131
e 13 137
e 13 138
e 13 139
e 13 141
e 13 147
e 13 150
e 13 156
e 14 15
e 14 17
e 14 21
e 14 29
e 14 36
e 14 40
e 14 42
e 14 49
e 14 53
e 14 56
e 14 61
e 14 63
e 14 72
e 14 79
e 14 82
e 14 83
e 14 85
e 14 86
e 14 88
e 14 91
e 14 98
e 14 101
e 14 116
e 14 121
e 14 139
e 14 153
e 14 154
e 15 24
e 15 33
e 15 40
e 15 42
e 15 44
e 15 45
e 15 47
e 15 50
e 15 54
e 15 67
e 15 69
e 15 71
e 15 74
e 15 76
e 15 88
e 15 91
e 15 98
e 15 100
e 15 104
e 15 107
e 15 113
e 15 114
e 15 115
e 15 120
e 15 133
e 15 136
e 15 138
e 15 152
e 15 155
e 15 158
e 15 160
e 16 17
e 16 20
e 16 21
e 16 22
e 16 23
e 16 30
e 16 45
e 16 46
e 16 58
e 16 60
e 16 66
e 16 68
e 16 70
e 16 74
e 16 75
e 16 81
e 16 82
e 16 83
e 16 109
e 16 110
e 16 115
e 16 121
e 16 131
e 16 133
e 16 144
e 16 152
e 16 156
e 16 157
e 16 160
e 17 20
e 17 25
e 17 26
e 17 28
e 17 32
e 17 33
e 17 41
e 17 45
e 17 49
e 17 53
e 17 56
e 17 77
e 17 92
e 17 93
e 17 96
e 17 110
e 17 117
e 17 119
e 17 123
e 17 125
e 17 127
e 17 135
e 17 146
e 17 155
e 17 157
e 18 22
e 18 29
e 18 32
e 18 37
e 18 39
e 18 41
e 18 51
e 18 54
e 18 55
e 18 59
e 18 60
e 18 62
e 18 64
e 18 65
e 18 67
e 18 72
e 18 75
e 18 78
e 18 87
e 18 94
e 18 96
e 18 99
e 18 100
e 18 113
e 18 126
e 18 129
e 18 130
e 18 137
e 18 147
e 18 149
e 18 152
e 18 153
e 18 156
e 19 20
e 19 24
e 19 27
e 19 29
e 19 31
e 19 37
e 19 41
e 19 53
e 19 63
e 19 74
e 19 81
e 19 82
e 19 84
e 19 94
e 19 95
e 19 97
e 19 99
e 19 100
e 19 104
e 19 112
e 19 113
e 19 117
e 19 119
e 19 120
e 19 122
e 19 127
e 19 129
e 19 147
e 19 158
e 20 21
e 20 25
e 20 27
e 20 28
e 20 34
e 20 36
e 20 59
e 20 61
e 20 69
e 20 75
e 20 77
e 20 81
e 20 96
e 20 101
e 20 102
e 20 110
e 20 112
e 20 118
e 20 119
e 20 124
e 20 129
e 20 132
e 20 133
e 20 139
e 20 141
e 20 150
e 20 158
e 21 22
e 21 23
e 21 25
e 21 28
e 21 39
e 21 43
e 21 45
e 21 46
e 21 56
e 21 62
e 21 66
e 21 70
e 21 73
e 21 74
e 21 86
e 21 93
e 21 95
e 21 96
e 21 101
e 21 102
e 21 107
e 21 109
e 21 110
e 21 114
e 21 119
e 21 122
e 21 124
e 21 125
e 21 130
e 21 135
e 21 136
e 21 139
e 21 148
e 21 152
e 21 159
e 22 25
e 22 28
e 22 32
e 22 37
e 22 41
e 22 44
e 22 48
e 22 50
e 22 52
e 22 55
e 22 57
e 22 58
e 22 61
e 22 67
e 22 73
e 22 77
e 22 94
e 22 97
e 22 116
e 22 117
e 22 128
e 22 131
e 22 143
e 22 145
e 22 150
e 22 155
e 22 159
e 22 160
e 23 30
e 23 38
e 23 42
e 23 47
e 23 50
e 23 51
e 23 53
e 23 54
e 23 58
e 23 61
e 23 62
e 23 66
e 23 67
e 23 71
e 23 75
e 23 82
e 23 86
e 23 91
e 23 97
e 23 99
e 23 102
e 23 104
e 23 114
e 23 133
e 23 136
e 23 140
e 23 156
e 23 157
e 23 158
e 24 31
e 24 32
e 24 41
e 24 44
e 24 45
e 24 59
e 24 66
e 24 87
e 24 93
e 24 96
e 24 105
e 24 107
e 24 110
e 24 122
e 24 123
e 24 125
e 24 128
e 24 131
e 24 137
e 24 139
e 24 142
e 24 152
e 24 155
e 24 159
e 25 26
e 25 29
e 25 30
e 25 36
e 25 37
e 25 40
e 25 41
e 25 43
e 25 45
e 25 62
e 25 74
e 25 85
e 25 92
e 25 100
e 25 102
e 25 103
e 25 107
e 25 111
e 25 113
e 25 131
e 25 136
e 25 137
e 25 141
e 25 143
e 25 148
e 25 157
e 25 158
e 26 28
e 26 30
e 26 40
e 26 41
e 26 43
e 26 44
e 26 48
e 26 65
e 26 69
e 26 83
e 26 89
e 26 99
e 26 103
e 26 106
e 26 108
e 26 124
e 26 126
e 26 127
e 26 131
e 26 136
e 26 137
e 26 143
e 26 144
e 27 30
e 27 33
e 27 41
e 27 45
e 27 46
e 27 58
e 27 66
e 27 69
e 27 74
e 27 77
e 27 83
e 27 87
e 27 88
e 27 89
e 27 91
e 27 92
e 27 95
e 27 96
e 27 104
e 27 125
e 27 128
e 27 129
e 27 133
e 27 134
e 27 143
e 27 148
e 27 152
e 28 29
e 28 35
e 28 39
e 28 45
e 28 46
e 28 50
e 28 55
e 28 65
e 28 68
e 28 71
e 28 72
e 28 76
e 28 82
e 28 85
e 28 100
e 28 102
e 28 105
e 28 110
e 28 114
e 28 116
e 28 119
e 28 123
e 28 124
e 28 126
e 28 135
e 28 144
e 28 145
e 29 50
e 29 51
e 29 66
e 29 70
e 29 71
e 29 75
e 29 89
e 29 91
e 29 93
e 29 95
e 29 96
e 29 99
e 29 100
e 29 107
e 29 115
e 29 119
e 29 128
e 29 134
e 29 135
e 29 136
e 29 138
e 29 139
e 29 141
e 29 145
e 29 155
e 30 33
e 30 34
e 30 56
e 30 61
e 30 64
e 30 69
e 30 80
e 30 81
e 30 83
e 30 84
e 30 85
e 30 86
e 30 99
e 30 100
e 30 101
e 30 102
e 30 104
e 30 114
e 30 116
e 30 118
e 30 119
e 30 127
e 30 128
e 30 130
e 30 133
e 30 137
e 30 139
e 30 153
e 30 156
e 31 39
e 31 41
e 31 45
e 31 53
e 31 54
e 31 55
e 31 56
e 31 58
e 31 59
e 31 61
e 31 63
e 31 64
e 31 65
e 31 77
e 31 83
e 31 86
e 31 87
e 31 90
e 31 93
e 31 100
e 31 101
e 31 106
e 31 108
e 31 113
e 31 123
e 31 126
e 31 131
e 31 132
e 31 134
e 31 138
e 31 139
e 31 141
e 31 145
e 31 157
e 31 160
e 32 35
e 32 48
e 32 49
e 32 55
e 32 63
e 32 64
e 32 66
e 32 76
e 32 80
e 32 83
e 32 86
e 32 92
e 32 96
e 32 99
e 32 100
e 32 101
e 32 104
e 32 106
e 32 108
e 32 111
e 32 112
e 32 118
e 32 146
e 32 150
e 32 155
e 32 157
e 33 37
e 33 40
e 33 42
e 33 43
e 33 45
e 33 52
e 33 61
e 33 63
e 33 68
e 33 72
e 33 79
e 33 82
e 33 86
e 33 87
e 33 94
e 33 98
e 33 103
e 33 109
e 33 112
e 33 115
e 33 118
e 33 124
e 33 127
e 33 134
e 33 136
e 33 144
e 33 157
e 34 36
e 34 38
e 34 53
e 34 65
e 34 67
e 34 69
e 34 77
e 34 80
e 34 83
e 34 85
e 34 90
e 34 91
e 34 100
e 34 102
e 34 103
e 34 105
e 34 110
e 34 111
e 34 112
e 34 126
e 34 143
e 34 144
e 34 149
e 34 151
e 34 157
e 35 36
e 35 41
e 35 51
e 35 58
e 35 59
e 35 69
e 35 72
e 35 82
e 35 93
e 35 99
e 35 111
e 35 113
e 35 115
e 35 116
e 35 117
e 35 121
e 35 130
e 35 143
e 35 147
e 35 148
e 35 149
e 35 150
e 35 154
e 35 160
e 36 38
e 36 39
e 36 54
e 36 55
e 36 58
e 36 60
e 36 87
e 36 92
e 36 98
e 36 101
e 36 106
e 36 107
e 36 109
e 36 114
e 36 115
e 36 116
e 36 117
e 36 123
e 36 126
e 36 133
e 36 143
e 36 147
e 37 39
e 37 44
e 37 46
e 37 48
e 37 57
e 37 66
e 37 76
e 37 81
e 37 82
e 37 88
e 37 89
e 37 91
e 37 93
e 37 96
e 37 100
e 37 108
e 37 114
e 37 122
e 37 123
e 37 125
e 37 130
e 37 131
e 37 132
e 37 136
e 37 137
e 37 139
e 38 40
e 38 55
e 38 63
e 38 65
e 38 73
e 38 76
e 38 78
e 38 84
e 38 95
e 38 97
e 38 101
e 38 104
e 38 108
e 38 113
e 38 125
e 38 127
e 38 136
e 38 138
e 38 139
e 38 152
e 38 155
e 38 160
e 39 44
e 39 54
e 39 56
e 39 62
e 39 63
e 39 64
e 39 69
e 39 71
e 39 81
e 39 85
e 39 90
e 39 94
e 39 96
e 39 100
e 39 103
e 39 106
e 39 115
e 39 122
e 39 124
e 39 125
e 39 127
e 39 133
e 39 134
e 39 137
e 39 138
e 39 140
e 39 141
e 39 143
e 39 147
e 39 158
e 40 49
e 40 50
e 40 54
e 40 66
e 40 69
e 40 74
e 40 77
e 40 85
e 40 102
e 40 104
e 40 109
e 40 114
e 40 117
e 40 118
e 40 123
e 40 124
e 40 125
e 40 126
e 40 128
e 40 130
e 40 136
e 40 148
e 40 149
e 40 153
e 40 156
e 40 158
e 40 159
e 41 56
e 41 57
e 41 73
e 41 75
e 41 78
e 41 81
e 41 84
e 41 86
e 41 95
e 41 99
e 41 103
e 41 113
e 41 114
e 41 118
e 41 122
e 41 127
e 41 129
e 41 130
e 41 144
e 41 146
e 41 148
e 41 159
e 42 48
e 42 52
e 42 55
e 42 71
e 42 76
e 42 81
e 42 86
e 42 93
e 42 99
e 42 124
e 42 125
e 42 132
e 42 133
e 42 134
e 42 151
e 42 155
e 42 159
e 43 47
e 43 53
e 43 54
e 43 58
e 43 60
e 43 64
e 43 70
e 43 74
e 43 86
e 43 91
e 43 93
e 43 97
e 43 99
e 43 111
e 43 114
e 43 125
e 43 128
e 43 133
e 43 135
e 43 140
e 43 142
e 43 148
e 43 150
e 43 160
e 44 47
e 44 49
e 44 50
e 44 51
e 44 56
e 44 57
e 44 62
e 44 63
e 44 64
e 44 67
e 44 73
e 44 79
e 44 100
e 44 101
e 44 106
e 44 120
e 44 126
e 44 127
e 44 135
e 44 136
e 44 139
e 44 141
e 44 146
e 44 152
e 44 154
e 44 158
e 44 159
e 45 47
e 45 60
e 45 63
e 45 71
e 45 73
e 45 87
e 45 92
e 45 94
e 45 96
e 45 98
e 45 101
e 45 107
e 45 118
e 45 119
e 45 122
e 45 128
e 45 130
e 45 131
e 45 133
e 45 134
e 45 151
e 45 155
e 45 159
e 45 160
e 46 61
e 46 63
e 46 64
e 46 72
e 46 73
e 46 77
e 46 85
e 46 89
e 46 90
e 46 92
e 46 95
e 46 98
e 46 99
e 46 118
e 46 125
e 46 135
e 46 138
e 46 147
e 46 148
e 46 149
e 46 151
e 47 48
e 47 50
e 47 51
e 47 65
e 47 67
e 47 68
e 47 81
e 47 84
e 47 86
e 47 89
e 47 91
e 47 92
e 47 96
e 47 100
e 47 108
e 47 111
e 47 116
e 47 117
e 47 124
e 47 127
e 47 135
e 47 147
e 47 152
e 47 156
e 48 55
e 48 60
e 48 61
e 48 64
e 48 70
e 48 71
e 48 76
e 48 79
e 48 85
e 48 100
e 48 106
e 48 109
e 48 111
e 48 113
e 48 130
e 48 131
e 48 143
e 48 148
e 48 150
e 48 156
e 49 52
e 49 55
e 49 56
e 49 59
e 49 63
e 49 64
e 49 67
e 49 69
e 49 71
e 49 73
e 49 77
e 49 91
e 49 92
e 49 94
e 49 97
e 49 98
e 49 99
e 49 106
e 49 113
e 49 121
e 49 122
e 49 125
e 49 127
e 49 132
e 49 136
e 49 138
e 49 139
e 49 142
e 49 144
e 49 149
e 49 152
e 49 153
e 49 155
e 49 156
e 50 62
e 50 63
e 50 70
e 50 71
e 50 77
e 50 78
e 50 83
e 50 84
e 50 86
e 50 90
e 50 95
e 50 102
e 50 108
e 50 111
e 50 118
e 50 123
e 50 133
e 50 149
e 50 154
e 50 159
e 51 62
e 51 74
e 51 81
e 51 83
e 51 85
e 51 87
e 51 88
e 51 95
e 51 97
e 51 100
e 51 104
e 51 106
e 51 116
e 51 123
e 51 126
e 51 127
e 51 130
e 51 134
e 51 141
e 51 151
e 51 155
e 52 53
e 52 55
e 52 57
e 52 58
e 52 85
e 52 87
e 52 91
e 52 95
e 52 97
e 52 102
e 52 107
e 52 112
e 52 115
e 52 117
e 52 120
e 52 125
e 52 126
e 52 132
e 52 134
e 52 138
e 52 145
e 52 147
e 52 155
e 52 159
e 53 58
e 53 61
e 53 63
e 53 74
e 53 78
e 53 80
e 53 94
e 53 99
e 53 101
e 53 104
e 53 106
e 53 110
e 53 111
e 53 112
e 53 114
e 53 118
e 53 126
e 53 127
e 53 134
e 53 135
e 53 146
e 53 150
e 53 157
e 54 55
e 54 63
e 54 64
e 54 71
e 54 74
e 54 76
e 54 77
e 54 78
e 54 79
e 54 80
e 54 83
e 54 94
e 54 108
e 54 118
e 54 130
e 54 136
e 54 141
e 54 146
e 54 150
e 55 56
e 55 57
e 55 64
e 55 67
e 55 69
e 55 72
e 55 82
e 55 87
e 55 90
e 55 91
e 55 93
e 55 97
e 55 98
e 55 100
e 55 101
e 55 103
e 55 106
e 55 107
e 55 109
e 55 112
e 55 123
e 55 125
e 55 131
e 55 133
e 55 135
e 55 138
e 55 142
e 55 160
e 56 57
e 56 65
e 56 73
e 56 76
e 56 81
e 56 100
e 56 102
e 56 105
e 56 108
e 56 110
e 56 113
e 56 141
e 56 143
e 56 144
e 57 66
e 57 68
e 57 73
e 57 77
e 57 82
e 57 83
e 57 92
e 57 93
e 57 100
e 57 103
e 57 120
e 57 123
e 57 124
e 57 125
e 57 127
e 57 133
e 57 136
e 57 156
e 57 159
e 58 65
e 58 80
e 58 82
e 58 84
e 58 95
e 58 101
e 58 102
e 58 105
e 58 107
e 58 109
e 58 139
e 58 140
e 58 142
e 58 144
e 58 145
e 58 148
e 58 150
e 58 153
e 58 155
e 58 157
e 59 73
e 59 80
e 59 115
e 59 123
e 59 126
e 59 127
e 59 129
e 59 131
e 59 135
e 59 136
e 59 150
e 59 157
e 60 79
e 60 88
e 60 102
e 60 104
e 60 108
e 60 110
e 60 121
e 60 124
e 60 127
e 60 131
e 60 133
e 60 138
e 60 144
e 60 155
e 60 156
e 61 62
e 61 65
e 61 66
e 61 71
e 61 75
e 61 77
e 61 80
e 61 89
e 61 93
e 61 96
e 61 102
e 61 104
e 61 108
e 61 118
e 61 120
e 61 121
e 61 122
e 61 135
e 61 140
e 61 141
e 62 67
e 62 68
e 62 75
e 62 76
e 62 78
e 62 81
e 62 84
e 62 86
e 62 90
e 62 95
e 62 99
e 62 111
e 62 116
e 62 122
e 62 125
e 62 126
e 62 134
e 62 136
e 62 139
e 62 142
e 62 145
e 62 157
e 63 64
e 63 78
e 63 81
e 63 82
e 63 87
e 63 95
e 63 112
e 63 114
e 63 117
e 63 121
e 63 122
e 63 128
e 63 130
e 63 134
e 63 139
e 63 146
e 63 153
e 63 157
e 63 158
e 63 159
e 64 65
e 64 67
e 64 69
e 64 71
e 64 73
e 64 75
e 64 77
e 64 79
e 64 86
e 64 89
e 64 90
e 64 97
e 64 101
e 64 104
e 64 137
e 64 138
e 64 143
e 64 149
e 64 150
e 64 152
e 65 66
e 65 70
e 65 71
e 65 75
e 65 78
e 65 79
e 65 82
e 65 88
e 65 92
e 65 97
e 65 100
e 65 109
e 65 112
e 65 117
e 65 131
e 65 133
e 65 134
e 65 141
e 65 146
e 65 150
e 65 154
e 66 67
e 66 68
e 66 72
e 66 77
e 66 81
e 66 83
e 66 84
e 66 92
e 66 102
e 66 111
e 66 122
e 66 125
e 66 126
e 66 131
e 66 136
e 66 141
e 66 148
e 66 149
e 66 150
e 66 152
e 66 159
e 67 78
e 67 90
e 67 101
e 67 109
e 67 110
e 67 113
e 67 114
e 67 118
e 67 120
e 67 122
e 67 124
e 67 126
e 67 128
e 67 133
e 67 147
e 67 160
e 68 71
e 68 74
e 68 77
e 68 84
e 68 96
e 68 97
e 68 98
e 68 101
e 68 114
e 68 115
e 68 123
e 68 129
e 68 136
e 68 140
e 68 147
e 68 148
e 68 151
e 68 154
e 69 70
e 69 73
e 69 75
e 69 78
e 69 83
e 69 84
e 69 87
e 69 97
e 69 101
e 69 120
e 69 121
e 69 122
e 69 126
e 69 129
e 69 130
e 69 132
e 69 136
e 69 145
e 69 148
e 70 80
e 70 82
e 70 87
e 70 97
e 70 106
e 70 129
e 70 136
e 70 148
e 71 77
e 71 78
e 71 80
e 71 97
e 71 101
e 71 102
e 71 106
e 71 110
e 71 112
e 71 114
e 71 115
e 71 117
e 71 124
e 71 127
e 71 129
e 71 139
e 71 140
e 71 150
e 71 156
e 72 87
e 72 88
e 72 91
e 72 94
e 72 98
e 72 103
e 72 106
e 72 111
e 72 113
e 72 115
e 72 116
e 72 118
e 72 120
e 72 126
e 72 132
e 72 142
e 72 143
e 72 145
e 72 154
e 73 74
e 73 81
e 73 83
e 73 84
e 73 86
e 73 94
e 73 101
e 73 102
e 73 112
e 73 118
e 73 128
e 73 131
e 73 135
e 73 136
e 73 154
e 73 157
e 73 158
e 74 77
e 74 79
e 74 80
e 74 81
e 74 83
e 74 84
e 74 85
e 74 86
e 74 108
e 74 111
e 74 116
e 74 122
e 74 129
e 74 132
e 74 134
e 74 136
e 74 139
e 74 143
e 74 144
e 74 148
e 74 156
e 74 157
e 75 79
e 75 82
e 75 85
e 75 87
e 75 90
e 75 95
e 75 98
e 75 100
e 75 113
e 75 115
e 75 119
e 75 121
e 75 129
e 75 130
e 75 131
e 75 139
e 75 143
e 75 148
e 75 149
e 75 152
e 76 79
e 76 84
e 76 86
e 76 89
e 76 96
e 76 108
e 76 110
e 76 115
e 76 117
e 76 122
e 76 123
e 76 140
e 76 144
e 76 157
e 76 160
e 77 83
e 77 84
e 77 94
e 77 96
e 77 101
e 77 105
e 77 107
e 77 110
e 77 112
e 77 120
e 77 122
e 77 127
e 77 139
e 77 147
e 77 148
e 77 152
e 78 86
e 78 93
e 78 101
e 78 105
e 78 114
e 78 117
e 78 129
e 78 138
e 78 140
e 78 145
e 78 152
e 78 153
e 78 158
e 78 159
e 79 80
e 79 82
e 79 87
e 79 88
e 79 89
e 79 92
e 79 94
e 79 95
e 79 98
e 79 99
e 79 103
e 79 104
e 79 110
e 79 125
e 79 126
e 79 128
e 79 137
e 79 142
e 79 145
e 79 147
e 80 82
e 80 85
e 80 88
e 80 92
e 80 93
e 80 115
e 80 118
e 80 120
e 80 126
e 80 128
e 80 129
e 80 139
e 80 141
e 80 143
e 80 149
e 80 152
e 80 156
e 80 158
e 80 160
e 81 84
e 81 86
e 81 90
e 81 91
e 81 92
e 81 93
e 81 95
e 81 97
e 81 99
e 81 114
e 81 116
e 81 120
e 81 129
e 81 130
e 81 139
e 81 148
e 81 153
e 82 83
e 82 84
e 82 92
e 82 105
e 82 109
e 82 123
e 82 125
e 82 133
e 82 140
e 82 141
e 82 147
e 82 150
e 82 151
e 82 154
e 83 91
e 83 109
e 83 117
e 83 140
e 83 145
e 83 146
e 83 147
e 83 155
e 83 157
e 84 87
e 84 91
e 84 104
e 84 106
e 84 110
e 84 111
e 84 112
e 84 114
e 84 116
e 84 117
e 84 134
e 84 142
e 84 150
e 84 154
e 84 157
e 85 88
e 85 93
e 85 103
e 85 104
e 85 108
e 85 137
e 85 139
e 85 145
e 85 152
e 85 153
e 86 91
e 86 94
e 86 102
e 86 111
e 86 117
e 86 129
e 86 136
e 86 137
e 86 140
e 86 149
e 86 155
e 86 156
e 86 157
e 86 158
e 87 89
e 87 101
e 87 105
e 87 108
e 87 112
e 87 113
e 87 115
e 87 116
e 87 130
e 87 135
e 87 139
e 87 144
e 87 151
e 87 155
e 87 160
e 88 95
e 88 97
e 88 102
e 88 107
e 88 112
e 88 114
e 88 117
e 88 128
e 88 136
e 88 138
e 88 146
e 88 147
e 88 152
e 88 154
e 89 90
e 89 93
e 89 95
e 89 96
e 89 102
e 89 104
e 89 108
e 89 119
e 89 123
e 89 127
e 89 128
e 89 141
e 89 146
e 89 152
e 89 159
e 90 91
e 90 93
e 90 100
e 90 101
e 90 107
e 90 108
e 90 115
e 90 119
e 90 124
e 90 125
e 90 129
e 90 130
e 90 137
e 90 143
e 90 145
e 90 146
e 90 154
e 91 92
e 91 100
e 91 109
e 91 127
e 91 128
e 91 134
e 91 143
e 91 147
e 91 148
e 91 149
e 91 155
e 92 97
e 92 106
e 92 112
e 92 115
e 92 118
e 92 121
e 92 123
e 92 130
e 92 133
e 92 138
e 92 149
e 92 153
e 93 94
e 93 96
e 93 100
e 93 112
e 93 114
e 93 120
e 93 127
e 93 133
e 93 137
e 93 148
e 93 155
e 94 101
e 94 103
e 94 110
e 94 112
e 94 115
e 94 129
e 94 130
e 94 139
e 94 144
e 94 146
e 94 157
e 95 99
e 95 103
e 95 104
e 95 119
e 95 123
e 95 125
e 95 126
e 95 135
e 95 143
e 95 149
e 95 159
e 96 107
e 96 113
e 96 117
e 96 120
e 96 122
e 96 131
e 96 134
e 96 139
e 96 141
e 96 143
e 96 146
e 96 148
e 96 154
e 97 102
e 97 106
e 97 108
e 97 111
e 97 120
e 97 129
e 97 139
e 97 142
e 97 147
e 97 153
e 97 154
e 97 156
e 97 158
e 97 160
e 98 108
e 98 119
e 98 123
e 98 124
e 98 125
e 98 132
e 98 134
e 98 143
e 98 144
e 98 148
e 99 111
e 99 126
e 99 130
e 99 135
e 99 141
e 99 148
e 99 152
e 99 156
e 99 159
e 100 111
e 100 113
e 100 122
e 100 125
e 100 129
e 100 140
e 100 147
e 100 159
e 100 160
e 101 111
e 101 112
e 101 116
e 101 118
e 101 120
e 101 124
e 101 130
e 101 131
e 101 151
e 101 153
e 102 106
e 102 119
e 102 122
e 102 128
e 102 143
e 102 159
e 103 106
e 103 107
e 103 118
e 103 121
e 103 124
e 103 125
e 103 134
e 103 139
e 103 140
e 103 145
e 103 152
e 104 105
e 104 131
e 104 132
e 104 134
e 104 139
e 104 144
e 104 146
e 104 150
e 104 151
e 104 153
e 104 157
e 105 110
e 105 111
e 105 117
e 105 127
e 105 134
e 105 135
e 105 136
e 105 139
e 105 141
e 105 146
e 106 109
e 106 112
e 106 116
e 106 128
e 106 130
e 106 131
e 106 132
e 106 134
e 106 138
e 106 143
e 106 146
e 106 149
e 106 151
e 106 156
e 107 108
e 107 131
e 107 141
e 107 142
e 107 145
e 107 148
e 108 111
e 108 113
e 108 127
e 108 135
e 108 138
e 108 149
e 108 154
e 108 158
e 108 159
e 109 112
e 109 114
e 109 118
e 109 125
e 109 132
e 109 136
e 109 140
e 109 145
e 109 148
e 109 149
e 109 154
e 109 158
e 109 159
e 109 160
e 110 113
e 110 115
e 110 120
e 110 134
e 110 136
e 110 155
e 110 158
e 111 114
e 111 127
e 111 135
e 111 141
e 111 145
e 111 155
e 112 114
e 112 119
e 112 121
e 112 122
e 112 128
e 112 129
e 112 130
e 112 135
e 112 143
e 112 147
e 112 149
e 112 153
e 112 157
e 113 118
e 113 121
e 113 124
e 113 128
e 113 132
e 113 135
e 113 139
e 113 146
e 113 149
e 114 131
e 114 138
e 114 145
e 114 158
e 115 125
e 115 135
e 115 137
e 115 138
e 116 117
e 116 121
e 116 127
e 116 128
e 116 133
e 116 134
e 116 139
e 116 148
e 116 150
e 116 151
e 117 121
e 117 127
e 117 131
e 117 134
e 117 144
e 117 148
e 117 150
e 117 151
e 117 154
e 117 155
e 117 157
e 118 122
e 118 125
e 118 130
e 118 135
e 118 136
e 118 139
e 118 142
e 118 146
e 118 148
e 118 150
e 118 156
e 119 120
e 119 127
e 119 130
e 119 143
e 119 154
e 120 126
e 120 127
e 120 130
e 120 143
e 120 144
e 120 146
e 120 149
e 120 155
e 120 156
e 120 158
e 120 160
e 121 122
e 121 128
e 121 131
e 121 136
e 121 138
e 121 143
e 121 146
e 121 148
e 121 156
e 122 123
e 122 124
e 122 125
e 122 134
e 122 137
e 122 138
e 122 145
e 122 147
e 122 150
e 122 154
e 122 158
e 123 124
e 123 127
e 123 130
e 123 131
e 123 145
e 123 146
e 123 151
e 123 152
e 123 160
e 124 127
e 124 129
e 124 135
e 124 136
e 124 156
e 125 127
e 125 128
e 125 139
e 125 149
e 125 153
e 126 137
e 126 141
e 126 146
e 126 147
e 126 149
e 126 156
e 126 157
e 126 160
e 127 132
e 127 133
e 127 140
e 127 141
e 127 150
e 127 153
e 127 155
e 127 160
e 128 130
e 128 132
e 128 135
e 128 143
e 128 149
e 128 150
e 129 143
e 129 145
e 129 152
e 129 153
e 129 154
e 129 155
e 130 132
e 130 138
e 130 143
e 130 146
e 130 147
e 130 156
e 131 134
e 131 142
e 131 146
e 131 147
e 131 149
e 131 150
e 131 151
e 131 154
e 131 157
e 131 160
e 132 136
e 132 140
e 132 141
e 132 142
e 132 157
e 133 136
e 133 137
e 133 140
e 133 142
e 133 145
e 133 150
e 133 156
e 134 138
e 134 142
e 134 145
e 135 140
e 135 141
e 135 148
e 135 151
e 135 154
e 136 137
e 136 138
e 136 142
e 136 150
e 137 142
e 137 144
e 137 145
e 137 151
e 137 153
e 137 158
e 137 159
e 138 140
e 138 141
e 138 148
e 138 149
e 138 150
e 138 158
e 139 145
e 139 151
e 139 153
e 139 154
e 140 154
e 140 159
e 141 142
e 141 143
e 141 146
e 141 148
e 141 154
e 141 160
e 142 146
e 142 158
e 143 150
e 143 151
e 144 147
e 144 150
e 144 160
e 145 146
e 146 148
e 146 150
e 146 154
e 147 149
e 147 151
e 149 151
e 149 157
e 150 151
e 150 157
e 151 154
e 152 153
e 152 155
e 157 160
e 159 160
